======================================================================
SCP SOLVER DEMO WITH VISUALIZATION
======================================================================

1. Loading track...
   Track length: 260.0 m

2. Creating vehicle model...
   Vehicle: SingleTrackModel(VW_Golf_GTI, weight_transfer=enabled)

3. Optimization setup:
   N = 30 points
   ds = 8.67 m
   Total distance = 260.0 m

======================================================================
STEP 1: Direct Collocation Optimizer (IPOPT)
======================================================================
Solving...

******************************************************************************
This program contains Ipopt, a library for large-scale nonlinear optimization.
 Ipopt is released as open source code under the Eclipse Public License (EPL).
         For more information visit https://github.com/coin-or/Ipopt
******************************************************************************

This is Ipopt version 3.14.11, running with linear solver MUMPS 5.4.1.

Number of nonzeros in equality constraint Jacobian...:     3179
Number of nonzeros in inequality constraint Jacobian.:      279
Number of nonzeros in Lagrangian Hessian.............:     1421

Total number of variables............................:      310
                     variables with only lower bounds:        0
                variables with lower and upper bounds:        0
                     variables with only upper bounds:        0
Total number of equality constraints.................:      250
Total number of inequality constraints...............:      279
        inequality constraints with only lower bounds:      155
   inequality constraints with lower and upper bounds:        0
        inequality constraints with only upper bounds:      124

iter    objective    inf_pr   inf_du lg(mu)  ||d||  lg(rg) alpha_du alpha_pr  ls
   0  2.6000000e+01 4.34e-01 6.80e-01  -1.0 0.00e+00    -  0.00e+00 0.00e+00   0
   1  2.1653934e+01 2.58e+00 2.97e+00  -1.0 6.04e+00    -  7.04e-01 1.00e+00f  1
   2  1.6608755e+01 5.14e+00 1.04e+00  -1.0 4.86e+00    -  7.02e-01 1.00e+00f  1
   3  1.2827550e+01 1.64e+01 7.37e-01  -1.0 5.54e+00    -  9.94e-01 1.00e+00h  1
   4  1.5447185e+01 2.44e+00 2.49e+00  -1.0 4.71e+00    -  1.00e+00 1.00e+00h  1
   5  1.5505143e+01 1.20e+00 5.18e-01  -1.0 9.93e-01    -  1.00e+00 1.00e+00h  1
   6  1.5188320e+01 1.65e-01 1.83e-01  -1.7 1.26e+00    -  1.00e+00 1.00e+00h  1
   7  1.4755217e+01 2.59e-01 1.18e-01  -2.5 1.63e+00    -  1.00e+00 7.95e-01h  1
   8  1.4690572e+01 6.76e-02 8.94e-02  -2.5 4.28e-01    -  1.00e+00 1.00e+00h  1
   9  1.4696074e+01 5.85e-03 7.46e-03  -2.5 1.17e-01    -  1.00e+00 1.00e+00h  1
iter    objective    inf_pr   inf_du lg(mu)  ||d||  lg(rg) alpha_du alpha_pr  ls
  10  1.4674727e+01 7.81e-03 1.03e-02  -3.8 1.23e-01    -  1.00e+00 8.63e-01h  1
  11  1.4673236e+01 3.79e-03 7.04e-04  -3.8 7.43e-02    -  1.00e+00 1.00e+00h  1
  12  1.4672394e+01 7.35e-04 1.45e-03  -5.7 2.58e-02    -  9.97e-01 8.32e-01h  1
  13  1.4672306e+01 4.97e-05 3.20e-05  -5.7 8.16e-03    -  1.00e+00 1.00e+00h  1
  14  1.4672308e+01 1.35e-07 6.75e-08  -5.7 3.91e-04    -  1.00e+00 1.00e+00h  1
  15  1.4672298e+01 3.55e-08 1.97e-08  -7.0 2.46e-04    -  1.00e+00 1.00e+00h  1

Number of Iterations....: 15

                                   (scaled)                 (unscaled)
Objective...............:   1.4672297603104942e+01    1.4672297603104942e+01
Dual infeasibility......:   1.9662648148566220e-08    1.9662648148566220e-08
Constraint violation....:   1.0377099517832597e-08    3.5458631586493539e-08
Variable bound violation:   0.0000000000000000e+00    0.0000000000000000e+00
Complementarity.........:   9.7772810945896936e-08    9.7772810945896936e-08
Overall NLP error.......:   9.7772810945896936e-08    9.7772810945896936e-08


Number of objective function evaluations             = 16
Number of objective gradient evaluations             = 16
Number of equality constraint evaluations            = 16
Number of inequality constraint evaluations          = 16
Number of equality constraint Jacobian evaluations   = 16
Number of inequality constraint Jacobian evaluations = 16
Number of Lagrangian Hessian evaluations             = 15
Total seconds in IPOPT                               = 0.571

EXIT: Optimal Solution Found.
      solver  :   t_proc      (avg)   t_wall      (avg)    n_eval
       nlp_f  |   1.06ms ( 66.50us)   1.06ms ( 66.34us)        16
       nlp_g  |  17.24ms (  1.08ms)  17.34ms (  1.08ms)        16
  nlp_grad_f  |   1.92ms (113.00us)   1.93ms (113.57us)        17
  nlp_hess_l  | 394.50ms ( 26.30ms) 396.65ms ( 26.44ms)        15
   nlp_jac_g  |  98.16ms (  5.77ms)  98.77ms (  5.81ms)        17
       total  | 568.11ms (568.11ms) 571.18ms (571.18ms)         1

Direct Collocation Result:
  Success: True
  Lap time: 14.6723 s
  Iterations: 15
  Solve time: 3.20 s

Generating Direct Collocation visualizations...
  Saved: /run/media/saveas/Secondary-Storage/Masters/CS234/CS234_Reinforcement_Learning/Final Project/CS234_Final_Project/results/trajectory_optimization/dc_trajectory.png
  Saved: /run/media/saveas/Secondary-Storage/Masters/CS234/CS234_Reinforcement_Learning/Final Project/CS234_Final_Project/results/trajectory_optimization/dc_states.png
  Saved: /run/media/saveas/Secondary-Storage/Masters/CS234/CS234_Reinforcement_Learning/Final Project/CS234_Final_Project/results/trajectory_optimization/dc_controls.png

======================================================================
STEP 2: SCP Solver (Cold Start) - Using QRQP
  [OSQP DEBUG MODE - reduced iterations for faster diagnosis]
======================================================================
Solving with cold start (no warm-start, QRQP solver)...
SCP Solver: N=30, ds=8.666666666666666m, track length=260.0m
Initial: lap_time=26.0000s, defect=2.950835, merit=87100.2612
----------------------------------------------------------------------
MESSAGE(sqpmethod): Convergence achieved after 1 iterations
    [STEP DIAG] ||dX||=9.815e+01, ||dU||=3.579e+00
  Iter 0: t=26.0000s, defect=2.950835, ||V||=9.78e-06, tr=0.500 (rejected)
MESSAGE(sqpmethod): Convergence achieved after 1 iterations
    [STEP DIAG] ||dX||=9.815e+01, ||dU||=3.579e+00
  Iter 1: t=26.0000s, defect=2.950835, ||V||=9.78e-06, tr=0.500 (rejected)
MESSAGE(sqpmethod): Convergence achieved after 1 iterations
    [STEP DIAG] ||dX||=9.815e+01, ||dU||=3.579e+00
  Iter 2: t=26.0000s, defect=2.950835, ||V||=9.78e-06, tr=0.500 (rejected)
MESSAGE(sqpmethod): Convergence achieved after 1 iterations
    [STEP DIAG] ||dX||=9.815e+01, ||dU||=3.579e+00
  Iter 3: t=26.0000s, defect=2.950835, ||V||=9.78e-06, tr=0.500 (rejected)
MESSAGE(sqpmethod): Convergence achieved after 1 iterations
    [STEP DIAG] ||dX||=9.815e+01, ||dU||=3.579e+00
  Iter 4: t=26.0000s, defect=2.950835, ||V||=9.78e-06, tr=0.500 (rejected)
MESSAGE(sqpmethod): Convergence achieved after 1 iterations
    [STEP DIAG] ||dX||=9.815e+01, ||dU||=3.579e+00
  Iter 5: t=26.0000s, defect=2.950835, ||V||=9.78e-06, tr=0.500 (rejected)
MESSAGE(sqpmethod): Convergence achieved after 1 iterations
    [STEP DIAG] ||dX||=9.815e+01, ||dU||=3.579e+00
  Iter 6: t=26.0000s, defect=2.950835, ||V||=9.78e-06, tr=0.500 (rejected)
MESSAGE(sqpmethod): Convergence achieved after 1 iterations
    [STEP DIAG] ||dX||=9.815e+01, ||dU||=3.579e+00
  Iter 7: t=26.0000s, defect=2.950835, ||V||=9.78e-06, tr=0.500 (rejected)
MESSAGE(sqpmethod): Convergence achieved after 1 iterations
    [STEP DIAG] ||dX||=9.815e+01, ||dU||=3.579e+00
  Iter 8: t=26.0000s, defect=2.950835, ||V||=9.78e-06, tr=0.500 (rejected)
MESSAGE(sqpmethod): Convergence achieved after 1 iterations
    [STEP DIAG] ||dX||=9.815e+01, ||dU||=3.579e+00
  Iter 9: t=26.0000s, defect=2.950835, ||V||=9.78e-06, tr=0.500 (rejected)
MESSAGE(sqpmethod): Convergence achieved after 1 iterations
    [STEP DIAG] ||dX||=9.815e+01, ||dU||=3.579e+00
  Iter 10: t=26.0000s, defect=2.950835, ||V||=9.78e-06, tr=0.500 (rejected)
MESSAGE(sqpmethod): Convergence achieved after 1 iterations
    [STEP DIAG] ||dX||=9.815e+01, ||dU||=3.579e+00
  Iter 11: t=26.0000s, defect=2.950835, ||V||=9.78e-06, tr=0.500 (rejected)
MESSAGE(sqpmethod): Convergence achieved after 1 iterations
    [STEP DIAG] ||dX||=9.815e+01, ||dU||=3.579e+00
  Iter 12: t=26.0000s, defect=2.950835, ||V||=9.78e-06, tr=0.500 (rejected)
MESSAGE(sqpmethod): Convergence achieved after 1 iterations
    [STEP DIAG] ||dX||=9.815e+01, ||dU||=3.579e+00
  Iter 13: t=26.0000s, defect=2.950835, ||V||=9.78e-06, tr=0.500 (rejected)
MESSAGE(sqpmethod): Convergence achieved after 1 iterations
    [STEP DIAG] ||dX||=9.815e+01, ||dU||=3.579e+00
  Iter 14: t=26.0000s, defect=2.950835, ||V||=9.78e-06, tr=0.500 (rejected)
MESSAGE(sqpmethod): Convergence achieved after 1 iterations
    [STEP DIAG] ||dX||=9.815e+01, ||dU||=3.579e+00
  Iter 15: t=26.0000s, defect=2.950835, ||V||=9.78e-06, tr=0.500 (rejected)
MESSAGE(sqpmethod): Convergence achieved after 1 iterations
    [STEP DIAG] ||dX||=9.815e+01, ||dU||=3.579e+00
  Iter 16: t=26.0000s, defect=2.950835, ||V||=9.78e-06, tr=0.500 (rejected)
MESSAGE(sqpmethod): Convergence achieved after 1 iterations
    [STEP DIAG] ||dX||=9.815e+01, ||dU||=3.579e+00
  Iter 17: t=26.0000s, defect=2.950835, ||V||=9.78e-06, tr=0.500 (rejected)
MESSAGE(sqpmethod): Convergence achieved after 1 iterations
    [STEP DIAG] ||dX||=9.815e+01, ||dU||=3.579e+00
  Iter 18: t=26.0000s, defect=2.950835, ||V||=9.78e-06, tr=0.500 (rejected)
MESSAGE(sqpmethod): Convergence achieved after 1 iterations
    [STEP DIAG] ||dX||=9.815e+01, ||dU||=3.579e+00
  Iter 19: t=26.0000s, defect=2.950835, ||V||=9.78e-06, tr=0.500 (rejected)
----------------------------------------------------------------------
Termination: Max iterations (20) reached
Final: lap_time=26.0000s, defect=2.950835, iterations=20, time=6.82s

SCP Cold Start Result:
  Success: False
  Converged: False
  Feasible: False
  Lap time: 26.0000 s
  Iterations: 20
  Solve time: 6.82 s
  Termination: Max iterations (20) reached

Generating SCP cold start visualizations...
  Saved: /run/media/saveas/Secondary-Storage/Masters/CS234/CS234_Reinforcement_Learning/Final Project/CS234_Final_Project/results/trajectory_optimization/scp_cold_trajectory.png
  Saved: /run/media/saveas/Secondary-Storage/Masters/CS234/CS234_Reinforcement_Learning/Final Project/CS234_Final_Project/results/trajectory_optimization/scp_cold_states.png
  Saved: /run/media/saveas/Secondary-Storage/Masters/CS234/CS234_Reinforcement_Learning/Final Project/CS234_Final_Project/results/trajectory_optimization/scp_cold_controls.png
  Saved: /run/media/saveas/Secondary-Storage/Masters/CS234/CS234_Reinforcement_Learning/Final Project/CS234_Final_Project/results/trajectory_optimization/scp_cold_convergence.png

======================================================================
STEP 3: Comparison and Analysis
======================================================================

Generating comparison plots...
  Saved: /run/media/saveas/Secondary-Storage/Masters/CS234/CS234_Reinforcement_Learning/Final Project/CS234_Final_Project/results/trajectory_optimization/method_comparison.png

Generating trajectory animation...
  Saved: /run/media/saveas/Secondary-Storage/Masters/CS234/CS234_Reinforcement_Learning/Final Project/CS234_Final_Project/results/trajectory_optimization/trajectory_animation.gif

======================================================================
SUMMARY
======================================================================

Method                         Solver   Iters    Time [s]   Cost [s]   Success
---------------------------------------------------------------------------
Direct Collocation             IPOPT    15       3.20       14.6723    True
SCP (Cold Start)               QRQP     20       6.82       26.0000    False

All outputs saved to: /run/media/saveas/Secondary-Storage/Masters/CS234/CS234_Reinforcement_Learning/Final Project/CS234_Final_Project/results/trajectory_optimization

Demo complete!
